
  27    4
  10   10   10   10

   0   0   0   0   0   2 2 4 
   9   7   4   1   3   2 5 3 
   3  10   3   6  10   3 8 7 6 
   2   3   8   6   7   3 8 7 6 
   3   7  10   7  10   3 10 9 7 
   3   7  10   7  10   4 12 11 10 9 
   7   5   7  10   8   5 18 15 13 12 11 
   3   7   4   8   3   4 18 16 15 13 
   4   6   9   9   6   3 16 15 13 
  10   6  10   9   7   4 23 20 18 17 
   2  10   8  10  10   3 20 17 16 
   3  10   9   7  10   3 20 17 16 
   9  10   9   6   6   2 17 14 
   5   9  10   7   5   4 24 23 22 19 
   9   5   8   9   7   4 23 22 20 19 
   9   8   9   9   8   5 26 24 23 22 21 
   6  10   4  10   4   3 24 22 19 
   7   6   7   9   8   2 22 19 
  10   6   7  10   8   2 26 21 
   7  10   6   4   7   2 26 21 
   9   7   7   9  10   1 25 
   4   8   6   7  10   1 25 
   8   7   9   4   6   1 25 
   7   7   7   7  10   1 25 
   3  10  10   8   7   1 27
   8   6   6   8   7   1 27
   0   0   0   0   0   0 
